70
1 0 4
3 1 5
3 2 2
5 1 1
5 2 4
5 3 3
5 4 5
6 0 3
6 1 3
6 2 6
6 3 4
7 0 3
7 4 4
7 5 6
7 6 5
8 1 1
8 5 2
8 7 4
9 0 4
9 2 6
9 3 1
9 5 3
9 6 1
9 7 3
10 0 1
10 1 6
10 3 3
10 4 3
10 5 2
10 8 1
11 1 2
11 3 1
11 6 1
11 7 4
11 10 6
12 0 3
12 3 6
12 6 3
12 9 1
12 10 5
13 0 3
13 1 6
13 2 4
13 3 6
13 5 1
13 7 5
13 8 1
13 10 3
13 12 2
14 0 6
14 1 5
14 2 2
14 3 4
14 4 3
14 5 5
14 8 6
15 6 2
15 7 6
15 8 5
15 9 6
15 10 3
15 11 3
15 12 3
15 13 6
16 1 3
16 2 2
16 5 6
16 6 3
16 7 6
16 8 6
16 11 3
17 3 3
17 4 4
17 5 2
17 6 6
17 7 6
17 12 1
17 14 4
17 15 3
17 16 3
18 4 2
18 8 3
18 12 3
18 13 4
18 14 2
18 16 5
19 1 3
19 2 3
19 3 5
19 5 6
19 7 2
19 8 4
19 10 2
19 13 1
19 14 1
19 17 6
20 0 6
20 1 3
20 4 1
20 5 3
20 6 3
20 7 2
20 9 3
20 10 6
20 12 6
20 17 4
20 18 4
20 19 5
21 1 4
21 2 1
21 4 5
21 5 5
21 6 6
21 7 6
21 8 6
21 9 2
21 10 3
21 13 2
21 15 5
21 17 4
21 18 4
21 20 4
22 3 1
22 6 5
22 7 3
22 8 3
22 10 5
22 12 1
22 13 5
22 17 5
22 18 2
22 19 2
22 21 4
23 0 6
23 1 1
23 2 2
23 3 2
23 5 2
23 9 2
23 10 5
23 12 4
23 14 1
23 17 1
23 18 2
23 19 3
23 20 3
23 21 2
23 22 3
24 1 6
24 2 1
24 3 6
24 5 6
24 7 3
24 10 5
24 11 3
24 14 5
24 18 3
24 20 1
24 21 6
24 22 5
25 0 3
25 3 6
25 4 3
25 6 2
25 7 4
25 8 6
25 9 4
25 12 3
25 14 1
25 16 3
25 17 4
25 19 2
25 21 6
25 22 2
25 24 2
26 3 4
26 4 4
26 6 6
26 9 5
26 12 3
26 13 4
26 16 5
26 19 1
26 22 3
27 1 2
27 5 1
27 6 2
27 12 5
27 14 3
27 15 6
27 16 4
27 17 5
27 18 1
27 19 1
27 22 2
27 23 5
27 24 3
27 25 2
27 26 4
28 2 4
28 3 3
28 5 6
28 7 1
28 8 1
28 11 6
28 14 3
28 15 2
28 16 2
28 17 2
28 19 1
28 21 1
28 22 3
28 24 2
28 26 4
29 0 6
29 2 2
29 3 2
29 5 5
29 6 1
29 8 6
29 9 2
29 12 4
29 13 1
29 16 4
29 18 2
29 19 2
29 24 6
29 25 1
30 0 6
30 3 4
30 4 4
30 5 5
30 7 4
30 8 2
30 9 3
30 10 3
30 13 1
30 15 2
30 16 6
30 18 5
30 22 3
30 23 3
30 27 2
30 28 4
30 29 4
31 4 3
31 5 5
31 6 1
31 7 2
31 8 2
31 9 1
31 10 2
31 12 5
31 14 5
31 15 3
31 21 6
31 23 2
31 26 6
31 27 3
31 28 1
31 29 1
31 30 6
32 0 4
32 3 6
32 5 3
32 6 5
32 8 3
32 10 3
32 12 6
32 15 5
32 17 1
32 20 6
32 21 5
32 23 4
32 25 6
32 26 6
32 28 6
32 31 3
33 1 4
33 5 3
33 7 6
33 14 4
33 16 6
33 17 1
33 18 3
33 25 6
33 26 5
33 32 5
34 1 2
34 4 5
34 5 4
34 7 2
34 9 5
34 10 4
34 12 2
34 14 5
34 15 4
34 16 4
34 17 3
34 18 6
34 19 5
34 20 3
34 21 2
34 23 4
34 25 2
34 28 4
34 29 1
34 30 4
34 31 5
34 32 5
35 1 1
35 2 2
35 8 6
35 10 6
35 11 6
35 14 6
35 15 6
35 16 2
35 19 3
35 22 6
35 24 5
35 25 5
35 26 3
35 29 5
35 32 4
35 33 5
35 34 6
36 2 6
36 5 6
36 6 4
36 7 5
36 13 4
36 14 4
36 15 4
36 21 4
36 24 1
36 25 1
36 28 5
36 30 2
36 32 3
36 35 1
37 1 5
37 3 2
37 4 3
37 7 6
37 8 2
37 11 4
37 15 3
37 16 5
37 17 1
37 21 4
37 23 5
37 24 2
37 25 5
37 26 1
37 27 2
37 28 4
37 32 6
37 33 6
38 0 3
38 2 5
38 3 3
38 5 3
38 10 3
38 12 3
38 13 2
38 14 5
38 16 6
38 20 2
38 22 2
38 23 2
38 26 3
38 28 4
38 29 4
38 32 3
38 33 6
39 2 4
39 3 4
39 4 2
39 5 1
39 10 1
39 13 4
39 14 2
39 16 2
39 20 5
39 23 6
39 24 3
39 25 6
39 26 6
39 28 2
39 29 1
39 31 4
39 32 2
39 33 4
39 37 6
40 2 5
40 4 6
40 5 2
40 6 3
40 7 3
40 8 2
40 9 6
40 10 5
40 14 1
40 16 4
40 18 6
40 19 1
40 21 1
40 22 5
40 25 6
40 26 3
40 27 4
40 29 4
40 30 3
40 31 3
40 32 5
40 34 6
40 38 6
41 2 6
41 3 2
41 4 2
41 7 5
41 9 4
41 10 3
41 11 2
41 13 4
41 14 6
41 17 1
41 21 1
41 22 4
41 23 3
41 24 5
41 27 1
41 29 3
41 31 6
41 33 3
41 35 5
41 37 1
41 38 1
41 40 2
42 0 6
42 1 2
42 10 2
42 11 1
42 16 1
42 17 1
42 18 5
42 19 5
42 22 2
42 23 3
42 25 2
42 27 2
42 28 1
42 30 5
42 33 5
42 35 5
42 38 6
42 41 1
43 0 5
43 1 2
43 2 1
43 12 2
43 13 6
43 14 4
43 17 3
43 18 5
43 19 1
43 21 1
43 23 4
43 25 4
43 26 5
43 29 6
43 33 6
43 35 6
43 36 5
43 37 4
43 38 5
43 40 2
43 41 5
43 42 6
44 1 5
44 4 3
44 5 3
44 6 6
44 12 3
44 13 2
44 16 4
44 17 5
44 18 2
44 26 2
44 27 6
44 28 6
44 30 4
44 32 3
44 34 4
44 35 4
44 37 2
44 39 1
44 40 3
44 41 1
44 43 5
45 0 5
45 1 5
45 2 1
45 4 5
45 7 2
45 9 1
45 10 2
45 15 1
45 16 4
45 17 6
45 25 2
45 26 4
45 30 1
45 33 5
45 35 4
45 38 6
45 41 4
45 43 4
45 44 3
46 1 6
46 2 6
46 3 2
46 5 3
46 6 4
46 14 6
46 15 4
46 17 1
46 18 1
46 22 4
46 24 6
46 26 2
46 27 1
46 28 4
46 29 3
46 30 4
46 33 6
46 35 1
46 39 3
46 42 1
46 43 5
47 2 3
47 6 5
47 7 1
47 9 6
47 10 2
47 11 2
47 13 6
47 16 6
47 17 1
47 19 3
47 22 2
47 24 4
47 26 6
47 27 3
47 28 3
47 29 3
47 30 3
47 32 3
47 33 6
47 36 5
47 40 1
47 42 2
47 45 6
48 2 1
48 5 1
48 6 5
48 8 3
48 9 6
48 10 3
48 14 4
48 16 3
48 17 3
48 18 4
48 19 2
48 20 1
48 25 2
48 26 4
48 27 1
48 28 2
48 30 5
48 34 2
48 36 5
48 37 6
48 40 5
48 42 2
48 43 4
48 45 2
48 46 5
49 0 1
49 4 4
49 6 2
49 7 5
49 8 4
49 10 3
49 11 6
49 14 5
49 17 6
49 18 3
49 21 1
49 22 3
49 23 6
49 24 2
49 25 6
49 26 4
49 30 4
49 31 4
49 33 4
49 37 6
49 42 5
49 43 4
49 44 2
49 46 1
50 0 5
50 6 2
50 7 5
50 8 2
50 9 2
50 12 2
50 13 3
50 15 1
50 18 1
50 19 3
50 20 6
50 21 6
50 26 4
50 30 6
50 32 5
50 34 5
50 35 1
50 38 2
50 39 6
50 41 3
50 42 5
50 45 2
50 48 3
50 49 4
51 0 4
51 2 4
51 4 3
51 6 4
51 7 2
51 8 6
51 11 2
51 13 5
51 14 2
51 18 2
51 21 1
51 22 4
51 26 1
51 27 5
51 28 1
51 29 1
51 30 6
51 33 4
51 36 4
51 37 3
51 38 2
51 39 1
51 41 4
51 43 5
51 45 5
51 47 5
51 49 6
52 5 3
52 6 6
52 7 2
52 8 4
52 9 3
52 13 3
52 17 3
52 18 6
52 19 2
52 21 1
52 22 2
52 24 1
52 25 5
52 26 6
52 27 5
52 29 6
52 30 6
52 34 3
52 36 4
52 37 5
52 41 6
52 43 1
52 44 3
52 49 2
52 51 4
53 1 4
53 2 1
53 5 5
53 6 4
53 8 4
53 12 3
53 14 6
53 15 4
53 16 2
53 17 5
53 18 2
53 19 2
53 20 3
53 21 2
53 22 1
53 23 5
53 28 2
53 30 4
53 32 4
53 35 5
53 39 2
53 42 2
53 43 4
53 44 5
53 47 1
53 52 6
54 0 2
54 5 1
54 6 3
54 9 4
54 10 4
54 12 1
54 13 1
54 17 3
54 19 5
54 22 6
54 23 3
54 25 5
54 28 3
54 31 5
54 32 4
54 35 1
54 37 3
54 38 3
54 39 2
54 40 2
54 41 6
54 42 1
54 43 3
54 45 1
54 47 2
54 48 4
54 50 6
54 51 5
54 52 4
54 53 2
55 0 2
55 1 6
55 4 4
55 6 6
55 8 6
55 9 4
55 11 3
55 12 3
55 14 3
55 15 3
55 18 2
55 20 3
55 24 1
55 26 1
55 31 4
55 33 1
55 35 5
55 36 4
55 38 1
55 39 1
55 41 2
55 44 5
55 45 6
55 46 6
55 48 2
55 50 6
55 51 6
55 52 6
55 53 1
56 0 1
56 1 3
56 4 5
56 5 3
56 6 2
56 8 1
56 14 3
56 15 2
56 17 5
56 18 4
56 20 5
56 21 5
56 24 6
56 25 6
56 26 3
56 28 2
56 29 4
56 30 2
56 31 3
56 37 5
56 39 6
56 42 6
56 43 2
56 45 2
56 46 4
56 47 3
56 48 3
56 49 5
56 51 4
56 55 2
57 1 4
57 2 1
57 5 6
57 6 2
57 15 4
57 21 1
57 23 6
57 29 1
57 31 4
57 33 2
57 34 4
57 35 6
57 37 3
57 38 3
57 39 2
57 40 1
57 43 3
57 44 5
57 45 2
57 46 3
57 48 3
57 49 5
57 50 5
57 54 3
58 3 5
58 5 2
58 7 2
58 8 3
58 9 4
58 10 1
58 11 2
58 13 6
58 15 5
58 16 5
58 17 2
58 19 6
58 24 5
58 25 4
58 26 2
58 27 4
58 31 2
58 35 5
58 38 4
58 39 3
58 40 2
58 42 1
58 46 2
58 47 6
58 48 6
58 50 4
58 51 1
58 57 6
59 1 4
59 4 4
59 6 3
59 9 3
59 11 6
59 14 6
59 18 3
59 19 4
59 22 1
59 24 5
59 27 6
59 30 5
59 33 5
59 35 4
59 36 2
59 37 3
59 39 2
59 42 6
59 43 1
59 45 2
59 47 6
59 49 3
59 50 2
59 52 2
59 53 1
59 56 1
59 58 3
60 0 6
60 1 6
60 2 3
60 5 6
60 7 2
60 9 6
60 19 1
60 21 6
60 23 5
60 25 4
60 27 6
60 28 1
60 30 1
60 35 2
60 36 2
60 38 4
60 40 1
60 41 2
60 43 4
60 45 5
60 47 3
60 48 3
60 49 6
60 51 6
60 52 4
60 53 2
60 56 5
60 58 2
61 0 6
61 6 6
61 7 6
61 8 1
61 9 4
61 10 6
61 12 3
61 14 6
61 16 2
61 17 4
61 20 6
61 21 2
61 22 3
61 28 6
61 31 2
61 33 6
61 36 3
61 41 1
61 42 3
61 47 1
61 50 4
61 53 5
61 54 5
61 58 5
61 59 6
62 3 2
62 4 2
62 5 6
62 8 6
62 11 3
62 15 4
62 16 6
62 23 1
62 26 4
62 30 6
62 33 1
62 37 4
62 38 1
62 39 3
62 40 5
62 41 5
62 42 6
62 43 5
62 44 3
62 47 5
62 51 4
62 52 2
62 55 5
62 56 1
62 57 4
62 59 5
63 1 6
63 2 4
63 5 5
63 8 2
63 10 6
63 14 5
63 15 3
63 16 3
63 19 6
63 21 6
63 22 6
63 23 1
63 24 4
63 27 5
63 29 2
63 31 3
63 32 1
63 33 6
63 37 3
63 43 6
63 46 4
63 49 6
63 50 5
63 51 4
63 54 2
63 55 5
63 57 2
64 1 1
64 2 5
64 3 1
64 4 1
64 9 2
64 11 4
64 13 3
64 14 1
64 15 3
64 16 2
64 17 5
64 19 6
64 20 1
64 22 1
64 23 4
64 26 3
64 27 2
64 28 6
64 29 4
64 31 4
64 33 1
64 34 5
64 36 2
64 37 3
64 39 1
64 40 4
64 41 4
64 45 5
64 46 4
64 48 4
64 51 5
64 53 2
64 54 4
64 57 2
64 59 2
64 60 3
64 63 5
65 1 1
65 2 2
65 4 3
65 5 1
65 6 6
65 7 6
65 9 2
65 10 3
65 14 5
65 16 1
65 25 1
65 27 5
65 29 3
65 31 4
65 32 3
65 35 5
65 36 4
65 38 5
65 39 3
65 41 6
65 42 3
65 43 3
65 46 3
65 47 3
65 48 1
65 50 4
65 55 4
65 57 4
65 58 3
65 61 2
66 0 5
66 1 1
66 5 1
66 8 3
66 13 3
66 17 5
66 23 2
66 24 3
66 26 5
66 27 5
66 28 3
66 29 5
66 31 3
66 35 4
66 36 1
66 37 4
66 40 5
66 42 1
66 43 1
66 44 1
66 45 4
66 47 3
66 48 6
66 51 3
66 57 3
66 58 5
66 59 6
66 64 5
67 3 4
67 7 1
67 8 2
67 9 5
67 11 3
67 12 3
67 14 5
67 15 4
67 16 6
67 17 3
67 21 2
67 22 6
67 23 1
67 24 6
67 25 2
67 27 4
67 28 2
67 29 2
67 32 3
67 33 3
67 35 5
67 38 1
67 40 6
67 45 3
67 46 2
67 47 1
67 49 6
67 51 2
67 52 3
67 56 3
67 57 4
67 59 2
67 61 3
67 65 2
67 66 3
68 1 4
68 2 6
68 3 4
68 4 5
68 6 6
68 7 1
68 9 3
68 10 2
68 14 4
68 15 6
68 16 2
68 17 5
68 18 6
68 19 4
68 20 5
68 21 1
68 22 2
68 23 6
68 25 3
68 26 1
68 28 5
68 30 6
68 36 6
68 37 2
68 38 4
68 39 2
68 41 3
68 43 4
68 44 1
68 45 6
68 46 3
68 47 1
68 49 6
68 51 2
68 52 1
68 56 2
68 57 6
68 58 2
68 64 1
68 65 4
68 67 3
69 0 5
69 1 6
69 4 6
69 6 5
69 7 6
69 9 6
69 12 4
69 13 4
69 14 2
69 18 1
69 19 4
69 20 6
69 24 4
69 27 2
69 29 3
69 30 2
69 32 6
69 33 3
69 34 1
69 39 4
69 40 4
69 41 6
69 42 6
69 43 2
69 48 1
69 49 6
69 52 2
69 53 2
69 55 4
69 56 5
69 58 3
69 60 5
69 62 5
69 65 3
69 66 2
